(set-logic ALL)
(declare-const BAV1 Bool)
(get-model)
(declare-const GEN2 Int)
(declare-const GEN1 Int)
(declare-fun a (Int) Bool)
(declare-fun b (Int) Bool)
(assert (= (a GEN1) (b GEN2)))
(push)
(assert (= BAV1 (= (a GEN1) (b GEN2))))
(check-sat)
(get-model)
(pop)
(check-sat)